&dos
   outdir = './work/',
   prefix = 'structure_name',       # change
   fildos = 'structure_name.dos',   # change
   emax   =  50                     # can change
   emin   = -50                     # can change
   deltae =  0.01                   # can change
/
